c read Graph
c width = 83
c time = 45 ms
c width = 7
c time = 81 ms
c width = 6
c time = 1319 ms
c width = 6
c time = 4994 ms
s td 90 7 96
b 1 1 2 17
b 2 2 3 17 18
b 3 14 15 31 32
b 4 3 17 18 33
b 5 14 31 32 48
b 6 49 65 66 82
b 7 64 79 80 95
b 8 49 66 82 83
b 9 64 79 94 95
b 10 3 4 5 20
b 11 3 5 20 35 49 50
b 12 3 20 34 35 49 50
b 13 3 19 20 34 35 49
b 14 3 19 33 34 49
b 15 3 18 19 33 34
b 16 5 6 20 21 35 49 50
b 17 6 20 21 35 36 49 50
b 18 6 21 35 36 49 50 51
b 19 6 21 36 49 50 51 66
b 20 6 21 36 49 51 66 83
b 21 6 21 36 51 66 67 83
b 22 6 21 36 51 52 67 83
b 23 6 21 36 37 52 67 83
b 24 6 21 22 37 52 67 83
b 25 6 7 22 37 52 67 83
b 26 7 22 37 52 67 68 83
b 27 7 22 37 52 53 68 83
b 28 7 22 37 38 53 68 83
b 29 7 22 23 38 53 68 83
b 30 7 8 23 38 53 68 83
b 31 8 23 38 53 68 83 84
b 32 8 23 38 53 68 69 84
b 33 8 23 38 53 54 69 84
b 34 8 23 38 39 54 69 84
b 35 8 23 24 39 54 69 84
b 36 8 9 24 39 54 69 84
b 37 9 24 39 54 69 84 85
b 38 9 24 39 54 69 70 85
b 39 9 24 39 54 55 70 85
b 40 9 24 39 40 55 70 85
b 41 9 24 25 40 55 70 85
b 42 9 25 40 55 70 85 86
b 43 9 25 40 55 70 71 86
b 44 9 25 40 55 56 71 86
b 45 9 25 40 41 56 71 86
b 46 9 25 26 41 56 71 86
b 47 9 11 26 41 56 71 86
b 48 11 26 41 56 71 86 87
b 49 11 26 41 56 71 72 87
b 50 11 26 41 56 72 87 88
b 51 11 26 41 56 72 73 88
b 52 11 26 41 56 58 73 88
b 53 11 26 41 42 58 73 88
b 54 11 26 42 43 58 73 88
b 55 11 26 28 43 58 73 88
b 56 11 12 28 43 58 73 88
b 57 12 13 28 43 58 73 88
b 58 13 28 43 58 73 88 90
b 59 13 28 43 58 73 75 90
b 60 13 28 43 58 60 75 90
b 61 13 28 43 45 60 75 90
b 62 13 28 30 45 60 75 90
b 63 13 30 45 60 75 90 92
b 64 13 30 45 60 75 77 92
b 65 13 30 45 60 62 77 92
b 66 13 30 45 47 62 77 92
b 67 13 30 47 62 64 77 92
b 68 41 56 57 58 73
b 69 58 73 74 75 90
b 70 73 88 89 90
b 71 11 26 27 28 43
b 72 9 10 11 26
b 73 75 90 91 92
b 74 45 60 61 62 77
b 75 47 62 64 77 92 94
b 76 77 92 93 94
b 77 47 62 64 77 78 94
b 78 47 62 63 64 78 94
b 79 63 64 78 79 94
b 80 13 28 29 30 45
b 81 30 45 46 47 62
b 82 13 30 47 48 64
b 83 13 14 30 47 48
b 84 14 30 31 47 48
b 85 28 43 44 45 60
b 86 60 75 76 77 92
b 87 43 58 59 60 75
b 88 80 95 96
b 89 65 81 82
b 90 15 16 32
1 2
2 4
3 90
3 5
4 15
5 84
6 89
6 8
7 88
7 9
8 20
9 79
10 11
11 16
11 12
12 13
13 14
14 15
16 17
17 18
18 19
19 20
20 21
21 22
22 23
23 24
24 25
25 26
26 27
27 28
28 29
29 30
30 31
31 32
32 33
33 34
34 35
35 36
36 37
37 38
38 39
39 40
40 41
41 42
42 43
43 44
44 45
45 46
46 47
47 72
47 48
48 49
49 50
50 51
51 52
52 68
52 53
53 54
54 55
55 71
55 56
56 57
57 58
58 70
58 59
59 69
59 60
60 87
60 61
61 85
61 62
62 80
62 63
63 73
63 64
64 86
64 65
65 74
65 66
66 81
66 67
67 82
67 75
75 76
75 77
77 78
78 79
82 83
83 84
